Normalized Data/p04_30_normalized_split0.vrp
NAME:p04_30_NORMALIZED_split
BEST_KNOWN: 0
COMMENT: 0
DIMENSION: 621
CAPACITY: 100
EDGE_WEIGHT_FORMAT: FUNCTION
EDGE_WEIGHT_TYPE: EXACT_2D
NODE_COORD_SECTION
1 0.00000 0.00000
2 -9 -15
3 -9 -15
4 -9 -15
5 -9 -15
6 -9 -15
7 15 -45
8 15 -45
9 15 -45
10 15 -45
11 15 -45
12 15 -45
13 20 -11
14 20 -11
15 11 4
16 11 4
17 11 4
18 11 4
19 48 33
20 48 33
21 48 33
22 48 33
23 48 33
24 48 33
25 48 33
26 23 34
27 23 34
28 23 34
29 23 34
30 23 34
31 23 34
32 -16 8
33 -16 8
34 -16 8
35 -16 8
36 -16 8
37 -16 8
38 11 -3
39 11 -3
40 11 -3
41 11 -3
42 11 -3
43 11 -3
44 11 -3
45 24 -23
46 24 -23
47 -2 -13
48 -2 -13
49 -2 -13
50 -7 -41
51 -7 -41
52 -7 -41
53 -7 -41
54 -7 -41
55 -7 -41
56 -7 13
57 -7 13
58 -7 13
59 -7 13
60 -31 -19
61 -31 -19
62 50 -31
63 50 -31
64 50 -31
65 50 -31
66 50 -31
67 50 -31
68 50 -31
69 -23 30
70 -23 30
71 -23 30
72 -23 30
73 -23 30
74 -23 30
75 -36 -47
76 -36 -47
77 -36 -47
78 -36 -47
79 -36 -47
80 -36 -47
81 -36 -47
82 -20 26
83 28 17
84 28 17
85 28 17
86 28 17
87 -36 -2
88 -36 -2
89 -13 -25
90 -13 -25
91 -13 -25
92 -46 4
93 -46 4
94 7 7
95 7 7
96 7 7
97 7 7
98 7 7
99 -23 -15
100 -23 -15
101 -23 -15
102 -23 -15
103 -23 -15
104 -23 -15
105 -42 2
106 -42 2
107 -42 2
108 6 1
109 6 1
110 6 1
111 6 1
112 -38 -28
113 -38 -28
114 -38 -28
115 -38 -28
116 -38 -28
117 -38 -28
118 32 -41
119 32 -41
120 32 -41
121 50 14
122 50 14
123 50 14
124 50 14
125 50 14
126 50 14
127 50 14
128 27 43
129 27 43
130 27 43
131 27 43
132 27 43
133 -16 10
134 -16 10
135 -16 10
136 -16 10
137 15 2
138 15 2
139 15 2
140 15 2
141 -49 26
142 -49 26
143 11 0
144 11 0
145 11 0
146 -31 -20
147 -31 -20
148 -31 -20
149 -31 -20
150 -14 23
151 -14 23
152 -14 23
153 -14 23
154 -14 23
155 -14 23
156 -14 23
157 43 10
158 43 10
159 49 12
160 49 12
161 49 12
162 -24 30
163 -24 30
164 -32 -15
165 -32 -15
166 -32 -15
167 -32 -15
168 -32 -15
169 15 1
170 15 1
171 15 1
172 15 1
173 15 1
174 15 1
175 15 1
176 -27 44
177 -27 44
178 -6 -30
179 -6 -30
180 -6 -30
181 37 -50
182 37 -50
183 37 -50
184 -18 -21
185 -18 -21
186 -18 -21
187 -18 -21
188 -18 -21
189 -46 -28
190 -46 -28
191 -46 -28
192 -46 -28
193 -46 -28
194 -46 -28
195 13 -38
196 13 -38
197 13 -38
198 13 -38
199 13 -38
200 13 -38
201 13 -38
202 1 -26
203 1 -26
204 1 -26
205 1 -26
206 1 -26
207 1 -26
208 42 -37
209 42 -37
210 42 -37
211 42 -37
212 42 -37
213 42 -37
214 -14 -39
215 -14 -39
216 -14 -39
217 -14 -39
218 -14 -39
219 -14 -39
220 42 -20
221 42 -20
222 42 -20
223 42 -20
224 42 -20
225 42 -20
226 8 -39
227 8 -39
228 -3 3
229 -3 3
230 -3 3
231 -3 3
232 -3 3
233 3 -45
234 3 -45
235 3 -45
236 3 -45
237 3 -45
238 3 -45
239 -27 -45
240 -27 -45
241 -27 -45
242 -27 -45
243 -26 37
244 -26 37
245 -26 37
246 -30 -41
247 -30 -41
248 44 8
249 44 8
250 44 8
251 44 8
252 44 8
253 27 22
254 27 22
255 -21 -43
256 -21 -43
257 16 -8
258 16 -8
259 16 -8
260 16 -8
261 46 45
262 46 45
263 46 45
264 46 45
265 -3 -1
266 -3 -1
267 -3 -1
268 -6 20
269 -6 20
270 -6 20
271 -6 50
272 -6 50
273 -6 50
274 -7 21
275 -7 21
276 23 -22
277 23 -22
278 23 -22
279 23 -22
280 23 -22
281 23 -22
282 22 -7
283 22 -7
284 22 26
285 22 26
286 22 26
287 22 26
288 -29 24
289 -29 24
290 -29 24
291 -29 24
292 -29 24
293 -15 -8
294 -15 -8
295 -15 -8
296 -15 -8
297 -15 -8
298 -15 -8
299 7 -42
300 7 -42
301 7 -42
302 7 -42
303 19 35
304 19 35
305 8 -41
306 8 -41
307 8 -41
308 8 -41
309 8 -41
310 8 -41
311 -7 -44
312 -7 -44
313 -7 -44
314 -7 -44
315 -7 -44
316 47 33
317 47 33
318 47 33
319 -18 -36
320 -18 -36
321 -18 -36
322 -18 -36
323 21 1
324 -26 -43
325 -26 -43
326 6 -31
327 6 -31
328 6 -31
329 47 -35
330 47 -35
331 47 -35
332 47 -35
333 -23 36
334 -23 36
335 -23 36
336 -23 36
337 -12 47
338 -12 47
339 -12 47
340 -30 18
341 -30 18
342 -32 42
343 -32 42
344 -32 42
345 -32 42
346 -32 42
347 -36 -44
348 -36 -44
349 -36 -44
350 -36 -44
351 -5 -12
352 -5 -12
353 -5 -12
354 -5 -12
355 -29 47
356 -29 47
357 -29 47
358 -29 47
359 29 39
360 29 39
361 29 39
362 18 -7
363 18 -7
364 18 -7
365 18 -7
366 18 -7
367 18 -7
368 -5 12
369 -5 12
370 -5 12
371 -5 12
372 -5 12
373 26 50
374 26 50
375 26 50
376 -50 15
377 -50 15
378 -50 15
379 -2 43
380 -2 43
381 -2 43
382 -2 43
383 -2 43
384 -32 19
385 -32 19
386 -32 19
387 -32 19
388 -32 19
389 -32 19
390 -48 21
391 -48 21
392 -48 21
393 23 15
394 23 15
395 34 35
396 34 35
397 11 -50
398 11 -50
399 11 -50
400 11 -50
401 11 -50
402 29 12
403 29 12
404 7 46
405 7 46
406 7 46
407 7 46
408 -12 -33
409 -12 -33
410 -12 -33
411 -42 -17
412 -42 -17
413 -42 -17
414 -42 -17
415 -42 -17
416 -42 -17
417 33 -42
418 33 -42
419 33 -42
420 33 -42
421 33 -42
422 33 -42
423 33 -42
424 41 6
425 41 6
426 41 6
427 35 -41
428 35 -41
429 35 -41
430 35 -41
431 35 -41
432 35 -41
433 30 1
434 30 1
435 -50 16
436 -50 16
437 -50 16
438 -50 16
439 -50 16
440 -50 16
441 17 44
442 17 44
443 46 0
444 46 0
445 46 0
446 46 0
447 46 0
448 46 0
449 -18 7
450 -18 7
451 -18 7
452 -41 -41
453 -41 -41
454 -41 -41
455 -41 -41
456 -1 -6
457 -1 -6
458 -1 -6
459 -1 -6
460 -36 -48
461 -36 -48
462 -36 -48
463 -36 -48
464 12 34
465 12 34
466 -37 -8
467 -37 -8
468 -37 -8
469 -37 -8
470 20 -35
471 20 -35
472 20 -35
473 -34 -3
474 -34 -3
475 -34 -3
476 -34 -3
477 -34 -3
478 -34 -3
479 49 -24
480 49 -24
481 49 -24
482 49 -24
483 49 -24
484 26 -11
485 26 -11
486 26 -11
487 26 -11
488 26 -11
489 26 -11
490 26 -11
491 21 -4
492 21 -4
493 21 -4
494 21 -4
495 -2 -12
496 -2 -12
497 -24 -4
498 -24 -4
499 -24 -4
500 -24 -4
501 -24 -4
502 -24 -4
503 -50 -25
504 -50 -25
505 -50 -25
506 -47 -31
507 -47 -31
508 -47 -31
509 -47 -31
510 -47 -31
511 -46 31
512 -46 31
513 -46 31
514 -46 31
515 49 41
516 49 41
517 49 41
518 49 41
519 49 41
520 49 41
521 -7 19
522 -7 19
523 -7 19
524 27 -15
525 27 -15
526 27 -15
527 27 -15
528 14 -38
529 14 -38
530 14 -38
531 -34 -35
532 -34 -35
533 -34 -35
534 -34 -35
535 -34 -35
536 -18 47
537 -18 47
538 -18 47
539 3 13
540 3 13
541 3 13
542 3 13
543 3 13
544 3 13
545 -22 -25
546 -22 -25
547 -22 -25
548 -22 -25
549 -22 -25
550 21 13
551 21 13
552 -43 10
553 -43 10
554 -43 10
555 -43 10
556 13 -27
557 13 -27
558 13 -27
559 13 -27
560 10 -24
561 10 -24
562 10 -24
563 10 -24
564 10 -24
565 -25 -17
566 -25 -17
567 -25 -17
568 -25 -17
569 -25 -17
570 -25 -17
571 -39 20
572 -39 20
573 -39 20
574 -39 20
575 -39 20
576 -39 20
577 17 30
578 17 30
579 17 30
580 17 30
581 17 30
582 -34 -36
583 -34 -36
584 -34 -36
585 -34 -36
586 -34 -36
587 -34 -36
588 -34 -36
589 -37 -47
590 -37 -47
591 -37 -47
592 28 -13
593 28 -13
594 28 -13
595 -3 8
596 -45 39
597 -45 39
598 -45 39
599 -45 28
600 -45 28
601 -45 28
602 -45 28
603 -45 28
604 -45 28
605 -45 28
606 -25 34
607 -25 34
608 -25 34
609 -15 15
610 -15 15
611 -15 15
612 -15 15
613 -15 15
614 22 35
615 22 35
616 -34 -3
617 -34 -3
618 -34 -3
619 -34 -3
620 -34 -3
621 -34 -3
DEMAND_SECTION
1 0
2 20
3 20
4 5
5 1
6 1
7 20
8 20
9 5
10 1
11 1
12 1
13 20
14 10
15 20
16 5
17 1
18 1
19 20
20 20
21 5
22 1
23 1
24 1
25 1
26 20
27 10
28 1
29 1
30 1
31 1
32 10
33 5
34 1
35 1
36 1
37 1
38 20
39 10
40 5
41 1
42 1
43 1
44 1
45 20
46 1
47 20
48 20
49 10
50 10
51 5
52 1
53 1
54 1
55 1
56 10
57 1
58 1
59 1
60 20
61 1
62 20
63 10
64 5
65 1
66 1
67 1
68 1
69 20
70 20
71 5
72 1
73 1
74 1
75 20
76 20
77 5
78 1
79 1
80 1
81 1
82 20
83 20
84 5
85 1
86 1
87 20
88 1
89 20
90 10
91 1
92 20
93 10
94 20
95 10
96 5
97 1
98 1
99 20
100 20
101 5
102 1
103 1
104 1
105 10
106 1
107 1
108 10
109 1
110 1
111 1
112 20
113 5
114 1
115 1
116 1
117 1
118 20
119 1
120 1
121 20
122 20
123 5
124 1
125 1
126 1
127 1
128 10
129 1
130 1
131 1
132 1
133 10
134 5
135 1
136 1
137 20
138 20
139 5
140 1
141 10
142 5
143 10
144 5
145 1
146 20
147 10
148 1
149 1
150 20
151 20
152 5
153 1
154 1
155 1
156 1
157 20
158 5
159 20
160 20
161 5
162 20
163 10
164 20
165 10
166 5
167 1
168 1
169 20
170 20
171 5
172 1
173 1
174 1
175 1
176 20
177 20
178 20
179 20
180 5
181 20
182 5
183 1
184 10
185 5
186 1
187 1
188 1
189 20
190 20
191 5
192 1
193 1
194 1
195 20
196 10
197 5
198 1
199 1
200 1
201 1
202 20
203 20
204 1
205 1
206 1
207 1
208 20
209 20
210 5
211 1
212 1
213 1
214 10
215 5
216 1
217 1
218 1
219 1
220 20
221 10
222 5
223 1
224 1
225 1
226 20
227 5
228 20
229 10
230 1
231 1
232 1
233 20
234 20
235 1
236 1
237 1
238 1
239 10
240 5
241 1
242 1
243 20
244 5
245 1
246 20
247 1
248 20
249 10
250 5
251 1
252 1
253 20
254 10
255 20
256 1
257 20
258 1
259 1
260 1
261 10
262 1
263 1
264 1
265 20
266 20
267 5
268 20
269 5
270 1
271 20
272 1
273 1
274 10
275 5
276 20
277 10
278 5
279 1
280 1
281 1
282 20
283 1
284 20
285 20
286 5
287 1
288 20
289 20
290 1
291 1
292 1
293 10
294 5
295 1
296 1
297 1
298 1
299 20
300 10
301 5
302 1
303 20
304 5
305 20
306 10
307 5
308 1
309 1
310 1
311 20
312 5
313 1
314 1
315 1
316 20
317 1
318 1
319 20
320 10
321 5
322 1
323 20
324 20
325 1
326 20
327 20
328 1
329 10
330 5
331 1
332 1
333 20
334 1
335 1
336 1
337 20
338 20
339 5
340 10
341 5
342 10
343 5
344 1
345 1
346 1
347 20
348 10
349 1
350 1
351 10
352 1
353 1
354 1
355 10
356 5
357 1
358 1
359 20
360 10
361 1
362 20
363 10
364 5
365 1
366 1
367 1
368 10
369 1
370 1
371 1
372 1
373 10
374 5
375 1
376 20
377 1
378 1
379 20
380 10
381 5
382 1
383 1
384 20
385 20
386 1
387 1
388 1
389 1
390 20
391 10
392 1
393 20
394 20
395 20
396 5
397 20
398 10
399 1
400 1
401 1
402 20
403 20
404 20
405 10
406 1
407 1
408 20
409 20
410 5
411 20
412 10
413 1
414 1
415 1
416 1
417 20
418 10
419 5
420 1
421 1
422 1
423 1
424 20
425 5
426 1
427 10
428 5
429 1
430 1
431 1
432 1
433 20
434 5
435 20
436 10
437 5
438 1
439 1
440 1
441 20
442 1
443 10
444 5
445 1
446 1
447 1
448 1
449 20
450 20
451 10
452 10
453 5
454 1
455 1
456 20
457 5
458 1
459 1
460 20
461 10
462 5
463 1
464 20
465 1
466 20
467 10
468 5
469 1
470 10
471 5
472 1
473 10
474 5
475 1
476 1
477 1
478 1
479 20
480 1
481 1
482 1
483 1
484 20
485 10
486 5
487 1
488 1
489 1
490 1
491 10
492 5
493 1
494 1
495 20
496 20
497 20
498 20
499 1
500 1
501 1
502 1
503 20
504 20
505 10
506 20
507 20
508 5
509 1
510 1
511 20
512 20
513 5
514 1
515 20
516 10
517 5
518 1
519 1
520 1
521 20
522 20
523 1
524 20
525 10
526 5
527 1
528 10
529 5
530 1
531 20
532 20
533 1
534 1
535 1
536 20
537 20
538 1
539 20
540 20
541 1
542 1
543 1
544 1
545 20
546 1
547 1
548 1
549 1
550 20
551 20
552 10
553 5
554 1
555 1
556 20
557 10
558 1
559 1
560 10
561 1
562 1
563 1
564 1
565 20
566 20
567 5
568 1
569 1
570 1
571 20
572 10
573 1
574 1
575 1
576 1
577 20
578 10
579 5
580 1
581 1
582 20
583 20
584 5
585 1
586 1
587 1
588 1
589 20
590 1
591 1
592 20
593 10
594 5
595 20
596 20
597 20
598 10
599 20
600 10
601 5
602 1
603 1
604 1
605 1
606 20
607 5
608 1
609 20
610 10
611 1
612 1
613 1
614 20
615 1
616 20
617 20
618 1
619 1
620 1
621 1
DEPOT_SECTION
1
-1
EOF