Normalized Data/p04_30_normalized_split0.sol
620 -13 526 525 524 592 593 591 483 485 484 487 489 486 488 -14 549 550 393 392 -15 16 17 85 83 84 82 252 285 284 286 283 -19 24 23 22 21 18 20 315 316 317 394 395 -25 28 29 27 30 26 360 358 359 128 131 127 130 129 614 613 -38 42 43 40 39 37 41 363 366 365 364 361 362 -46 47 495 494 455 -48 179 178 177 201 202 204 206 -56 58 57 55 537 535 536 338 337 336 -81 71 68 72 69 70 73 162 161 -93 541 539 538 543 227 228 230 229 231 -96 97 94 95 578 577 576 580 579 303 302 464 463 -105 91 92 376 377 375 436 438 435 439 437 434 553 552 -106 104 554 551 574 571 570 383 387 385 384 340 -108 107 173 171 172 322 433 432 401 402 -110 109 136 139 138 137 168 169 174 170 -124 125 126 120 123 122 121 159 158 160 157 -132 133 135 134 33 35 36 31 34 32 448 450 449 -143 142 491 490 492 493 281 282 12 259 258 256 257 -144 447 446 442 249 248 250 247 251 156 425 423 424 -185 186 187 184 183 90 88 89 408 407 409 -205 203 233 234 237 232 235 236 313 312 311 314 310 54 52 53 50 49 51 456 458 457 -218 217 216 215 214 213 255 254 323 324 318 319 321 320 -220 222 330 328 329 331 211 208 212 210 209 207 426 417 421 420 419 422 -221 224 219 223 65 62 66 63 61 67 64 478 479 481 480 482 443 445 444 -225 226 309 308 306 305 304 307 299 300 298 301 -241 238 240 239 77 79 78 74 75 80 76 349 348 346 347 -246 245 461 459 462 460 590 589 588 452 451 454 453 534 533 -253 514 516 515 519 518 517 261 260 262 263 372 373 374 440 441 -265 264 5 1 4 2 3 352 351 353 350 -266 531 530 532 583 582 586 581 587 585 584 545 548 546 547 -267 268 269 274 273 522 521 520 368 370 367 369 371 -292 163 167 164 165 166 59 146 145 148 147 569 -293 102 103 101 99 100 98 568 566 564 565 567 -294 295 297 296 60 188 190 191 193 192 189 505 508 506 509 507 -327 325 326 194 199 195 198 528 529 527 556 557 -334 335 332 333 175 176 354 355 356 357 344 342 341 343 345 -339 388 386 604 603 599 602 601 600 598 140 141 391 389 390 572 575 573 -379 381 380 382 378 271 270 272 406 405 403 404 542 540 -399 397 396 400 398 10 11 6 9 7 8 197 200 196 561 563 559 -413 414 415 412 411 410 466 465 467 468 87 86 473 475 474 476 617 -430 428 427 431 429 180 182 181 418 416 117 119 118 471 470 469 562 560 -497 496 501 498 499 500 620 477 615 616 618 472 619 -502 504 503 114 115 116 113 112 111 544 -510 511 512 513 595 596 597 -523 45 44 275 277 279 278 276 280 555 558 -594 154 152 151 149 155 150 153 609 608 610 -605 607 606 243 242 244 288 290 291 289 287 612 611 0 





OBJ=
4239.866
BEST_KNOWN=
0.000